c generated by sgen
p cnf 97 204
-2 -3 -4 0
-1 -3 -4 0
-1 -2 -4 0
-1 -2 -3 0
-6 -7 -8 0
-5 -7 -8 0
-5 -6 -8 0
-5 -6 -7 0
-10 -11 -12 0
-9 -11 -12 0
-9 -10 -12 0
-9 -10 -11 0
-14 -15 -16 0
-13 -15 -16 0
-13 -14 -16 0
-13 -14 -15 0
-18 -19 -20 0
-17 -19 -20 0
-17 -18 -20 0
-17 -18 -19 0
-22 -23 -24 0
-21 -23 -24 0
-21 -22 -24 0
-21 -22 -23 0
-26 -27 -28 0
-25 -27 -28 0
-25 -26 -28 0
-25 -26 -27 0
-30 -31 -32 0
-29 -31 -32 0
-29 -30 -32 0
-29 -30 -31 0
-34 -35 -36 0
-33 -35 -36 0
-33 -34 -36 0
-33 -34 -35 0
-38 -39 -40 0
-37 -39 -40 0
-37 -38 -40 0
-37 -38 -39 0
-42 -43 -44 0
-41 -43 -44 0
-41 -42 -44 0
-41 -42 -43 0
-46 -47 -48 0
-45 -47 -48 0
-45 -46 -48 0
-45 -46 -47 0
-50 -51 -52 0
-49 -51 -52 0
-49 -50 -52 0
-49 -50 -51 0
-54 -55 -56 0
-53 -55 -56 0
-53 -54 -56 0
-53 -54 -55 0
-58 -59 -60 0
-57 -59 -60 0
-57 -58 -60 0
-57 -58 -59 0
-62 -63 -64 0
-61 -63 -64 0
-61 -62 -64 0
-61 -62 -63 0
-66 -67 -68 0
-65 -67 -68 0
-65 -66 -68 0
-65 -66 -67 0
-70 -71 -72 0
-69 -71 -72 0
-69 -70 -72 0
-69 -70 -71 0
-74 -75 -76 0
-73 -75 -76 0
-73 -74 -76 0
-73 -74 -75 0
-78 -79 -80 0
-77 -79 -80 0
-77 -78 -80 0
-77 -78 -79 0
-82 -83 -84 0
-81 -83 -84 0
-81 -82 -84 0
-81 -82 -83 0
-86 -87 -88 0
-85 -87 -88 0
-85 -86 -88 0
-85 -86 -87 0
-90 -91 -92 0
-89 -91 -92 0
-89 -90 -92 0
-89 -90 -91 0
-93 -94 -95 0
-93 -94 -96 0
-93 -94 -97 0
-93 -95 -96 0
-93 -95 -97 0
-93 -96 -97 0
-94 -95 -96 0
-94 -95 -97 0
-94 -96 -97 0
-95 -96 -97 0
33 80 47 0
52 80 47 0
52 33 47 0
52 33 80 0
26 68 35 0
62 68 35 0
62 26 35 0
62 26 68 0
32 25 46 0
12 25 46 0
12 32 46 0
12 32 25 0
3 67 11 0
23 67 11 0
23 3 11 0
23 3 67 0
89 64 15 0
97 64 15 0
97 89 15 0
97 89 64 0
83 90 8 0
85 90 8 0
85 83 8 0
85 83 90 0
22 95 77 0
81 95 77 0
81 22 77 0
81 22 95 0
54 96 43 0
48 96 43 0
48 54 43 0
48 54 96 0
66 17 93 0
60 17 93 0
60 66 93 0
60 66 17 0
41 58 31 0
51 58 31 0
51 41 31 0
51 41 58 0
37 44 79 0
91 44 79 0
91 37 79 0
91 37 44 0
10 76 70 0
6 76 70 0
6 10 70 0
6 10 76 0
94 49 74 0
16 49 74 0
16 94 74 0
16 94 49 0
45 7 19 0
13 7 19 0
13 45 19 0
13 45 7 0
4 86 73 0
42 86 73 0
42 4 73 0
42 4 86 0
30 72 82 0
2 72 82 0
2 30 82 0
2 30 72 0
69 38 63 0
1 38 63 0
1 69 63 0
1 69 38 0
55 27 57 0
14 27 57 0
14 55 57 0
14 55 27 0
59 9 36 0
92 9 36 0
92 59 36 0
92 59 9 0
84 28 20 0
39 28 20 0
39 84 20 0
39 84 28 0
34 75 21 0
40 75 21 0
40 34 21 0
40 34 75 0
78 53 71 0
18 53 71 0
18 78 71 0
18 78 53 0
88 29 24 0
61 29 24 0
61 88 24 0
61 88 29 0
87 65 5 0
87 65 56 0
87 65 50 0
87 5 56 0
87 5 50 0
87 56 50 0
65 5 56 0
65 5 50 0
65 56 50 0
5 56 50 0
